p cnf 452 318
c p distribution  0.875 0.125
c p distribution  0.875 0.125
c p distribution  0.875 0.125
c p distribution  0.875 0.125
c p distribution  0.875 0.125
c p distribution  0.875 0.125
c p distribution  0.875 0.125
c p distribution  0.875 0.125
c p distribution  0.875 0.125
c p distribution  0.875 0.125
c p distribution  0.875 0.125
c p distribution  0.875 0.125
c p distribution  0.875 0.125
c p distribution  0.875 0.125
c p distribution  0.875 0.125
c p distribution  0.875 0.125
c p distribution  0.875 0.125
c p distribution  0.875 0.125
c p distribution  0.875 0.125
c p distribution  0.875 0.125
c p distribution  0.875 0.125
c p distribution  0.875 0.125
c p distribution  0.875 0.125
c p distribution  0.875 0.125
c p distribution  0.875 0.125
c p distribution  0.875 0.125
c p distribution  0.875 0.125
c p distribution  0.875 0.125
c p distribution  0.875 0.125
c p distribution  0.875 0.125
c p distribution  0.875 0.125
c p distribution  0.875 0.125
c p distribution  0.875 0.125
c p distribution  0.875 0.125
c p distribution  0.875 0.125
c p distribution  0.875 0.125
c p distribution  0.875 0.125
c p distribution  0.875 0.125
c p distribution  0.875 0.125
c p distribution  0.875 0.125
c p distribution  0.875 0.125
c p distribution  0.875 0.125
c p distribution  0.875 0.125
c p distribution  0.875 0.125
c p distribution  0.875 0.125
c p distribution  0.875 0.125
c p distribution  0.875 0.125
c p distribution  0.875 0.125
c p distribution  0.875 0.125
c p distribution  0.875 0.125
c p distribution  0.875 0.125
c p distribution  0.875 0.125
c p distribution  0.875 0.125
c p distribution  0.875 0.125
c p distribution  0.875 0.125
c p distribution  0.875 0.125
c p distribution  0.875 0.125
c p distribution  0.875 0.125
c p distribution  0.875 0.125
c p distribution  0.875 0.125
c p distribution  0.875 0.125
c p distribution  0.875 0.125
c p distribution  0.875 0.125
c p distribution  0.875 0.125
c p distribution  0.875 0.125
c p distribution  0.875 0.125
c p distribution  0.875 0.125
c p distribution  0.875 0.125
c p distribution  0.875 0.125
c p distribution  0.875 0.125
c p distribution  0.875 0.125
c p distribution  0.875 0.125
c p distribution  0.875 0.125
c p distribution  0.875 0.125
c p distribution  0.875 0.125
c p distribution  0.875 0.125
c p distribution  0.875 0.125
c p distribution  0.875 0.125
c p distribution  0.875 0.125
c p distribution  0.875 0.125
c p distribution  0.875 0.125
c p distribution  0.875 0.125
c p distribution  0.875 0.125
c p distribution  0.875 0.125
c p distribution  0.875 0.125
c p distribution  0.875 0.125
c p distribution  0.875 0.125
c p distribution  0.875 0.125
c p distribution  0.875 0.125
c p distribution  0.875 0.125
c p distribution  0.875 0.125
c p distribution  0.875 0.125
c p distribution  0.875 0.125
c p distribution  0.875 0.125
c p distribution  0.875 0.125
c p distribution  0.875 0.125
c p distribution  0.875 0.125
c p distribution  0.875 0.125
c p distribution  0.875 0.125
c p distribution  0.875 0.125
c p distribution  0.875 0.125
c p distribution  0.875 0.125
c p distribution  0.875 0.125
c p distribution  0.875 0.125
c p distribution  0.875 0.125
c p distribution  0.875 0.125
c p distribution  0.875 0.125
c p distribution  0.875 0.125
c p distribution  0.875 0.125
c p distribution  0.875 0.125
c p distribution  0.875 0.125
c p distribution  0.875 0.125
c p distribution  0.875 0.125
c p distribution  0.875 0.125
c p distribution  0.875 0.125
c p distribution  0.875 0.125
c p distribution  0.875 0.125
c p distribution  0.875 0.125
c p distribution  0.875 0.125
c p distribution  0.875 0.125
c p distribution  0.875 0.125
c p distribution  0.875 0.125
c p distribution  0.875 0.125
c p distribution  0.875 0.125
c p distribution  0.875 0.125
c p distribution  0.875 0.125
c p distribution  0.875 0.125
c p distribution  0.875 0.125
c p distribution  0.875 0.125
c p distribution  0.875 0.125
c p distribution  0.875 0.125
c p distribution  0.875 0.125
c p distribution  0.875 0.125
c p distribution  0.875 0.125
c p distribution  0.875 0.125
c p distribution  0.875 0.125
c p distribution  0.875 0.125
c p distribution  0.875 0.125
c p distribution  0.875 0.125
c p distribution  0.875 0.125
c p distribution  0.875 0.125
c p distribution  0.875 0.125
c p distribution  0.875 0.125
c p distribution  0.875 0.125
c p distribution  0.875 0.125
c p distribution  0.875 0.125
c p distribution  0.875 0.125
c p distribution  0.875 0.125
c p distribution  0.875 0.125
c p distribution  0.875 0.125
c p distribution  0.875 0.125
c p distribution  0.875 0.125
c p distribution  0.875 0.125
c p distribution  0.875 0.125
c p distribution  0.875 0.125
c p distribution  0.875 0.125
c p distribution  0.875 0.125
c p distribution  0.875 0.125
318 0
-410 0
407 -406 -1 0
406 -407 -1 0
323 -396 -3 0
396 -323 -3 0
368 -352 -5 0
352 -368 -5 0
443 -385 -7 0
385 -443 -7 0
406 -359 -9 0
359 -406 -9 0
369 -353 -11 0
353 -369 -11 0
366 -442 -13 0
442 -366 -13 0
451 -348 -15 0
348 -451 -15 0
393 -446 -17 0
446 -393 -17 0
343 -408 -19 0
408 -343 -19 0
351 -362 -21 0
362 -351 -21 0
407 -386 -23 0
386 -407 -23 0
388 -368 -25 0
368 -388 -25 0
405 -355 -27 0
355 -405 -27 0
349 -350 -29 0
350 -349 -29 0
349 -324 -31 0
324 -349 -31 0
450 -445 -33 0
445 -450 -33 0
354 -403 -35 0
403 -354 -35 0
396 -435 -37 0
435 -396 -37 0
444 -431 -39 0
431 -444 -39 0
368 -435 -41 0
435 -368 -41 0
447 -352 -43 0
352 -447 -43 0
345 -443 -45 0
443 -345 -45 0
387 -381 -47 0
381 -387 -47 0
452 -422 -49 0
422 -452 -49 0
370 -321 -51 0
321 -370 -51 0
440 -344 -53 0
344 -440 -53 0
337 -326 -55 0
326 -337 -55 0
354 -365 -57 0
365 -354 -57 0
389 -331 -59 0
331 -389 -59 0
388 -351 -61 0
351 -388 -61 0
318 -338 -63 0
338 -318 -63 0
368 -323 -65 0
323 -368 -65 0
356 -323 -67 0
323 -356 -67 0
357 -336 -69 0
336 -357 -69 0
339 -380 -71 0
380 -339 -71 0
401 -389 -73 0
389 -401 -73 0
395 -404 -75 0
404 -395 -75 0
376 -409 -77 0
409 -376 -77 0
348 -319 -79 0
319 -348 -79 0
393 -419 -81 0
419 -393 -81 0
323 -371 -83 0
371 -323 -83 0
383 -356 -85 0
356 -383 -85 0
375 -364 -87 0
364 -375 -87 0
334 -431 -89 0
431 -334 -89 0
344 -440 -91 0
440 -344 -91 0
341 -428 -93 0
428 -341 -93 0
336 -360 -95 0
360 -336 -95 0
401 -344 -97 0
344 -401 -97 0
358 -328 -99 0
328 -358 -99 0
320 -321 -101 0
321 -320 -101 0
331 -340 -103 0
340 -331 -103 0
421 -436 -105 0
436 -421 -105 0
372 -319 -107 0
319 -372 -107 0
338 -439 -109 0
439 -338 -109 0
341 -343 -111 0
343 -341 -111 0
340 -328 -113 0
328 -340 -113 0
382 -410 -115 0
410 -382 -115 0
335 -319 -117 0
319 -335 -117 0
415 -342 -119 0
342 -415 -119 0
424 -434 -121 0
434 -424 -121 0
429 -400 -123 0
400 -429 -123 0
367 -350 -125 0
350 -367 -125 0
417 -397 -127 0
397 -417 -127 0
366 -345 -129 0
345 -366 -129 0
367 -337 -131 0
337 -367 -131 0
422 -365 -133 0
365 -422 -133 0
410 -437 -135 0
437 -410 -135 0
369 -433 -137 0
433 -369 -137 0
374 -372 -139 0
372 -374 -139 0
439 -397 -141 0
397 -439 -141 0
335 -389 -143 0
389 -335 -143 0
319 -400 -145 0
400 -319 -145 0
343 -369 -147 0
369 -343 -147 0
373 -408 -149 0
408 -373 -149 0
432 -380 -151 0
380 -432 -151 0
364 -380 -153 0
380 -364 -153 0
350 -386 -155 0
386 -350 -155 0
427 -325 -157 0
325 -427 -157 0
389 -402 -159 0
402 -389 -159 0
416 -426 -161 0
426 -416 -161 0
449 -438 -163 0
438 -449 -163 0
392 -363 -165 0
363 -392 -165 0
333 -418 -167 0
418 -333 -167 0
352 -346 -169 0
346 -352 -169 0
434 -414 -171 0
414 -434 -171 0
393 -366 -173 0
366 -393 -173 0
429 -360 -175 0
360 -429 -175 0
361 -443 -177 0
443 -361 -177 0
346 -358 -179 0
358 -346 -179 0
382 -366 -181 0
366 -382 -181 0
352 -435 -183 0
435 -352 -183 0
352 -329 -185 0
329 -352 -185 0
425 -415 -187 0
415 -425 -187 0
448 -351 -189 0
351 -448 -189 0
354 -403 -191 0
403 -354 -191 0
437 -398 -193 0
398 -437 -193 0
390 -441 -195 0
441 -390 -195 0
430 -421 -197 0
421 -430 -197 0
343 -437 -199 0
437 -343 -199 0
432 -438 -201 0
438 -432 -201 0
439 -413 -203 0
413 -439 -203 0
417 -381 -205 0
381 -417 -205 0
319 -389 -207 0
389 -319 -207 0
402 -340 -209 0
340 -402 -209 0
336 -394 -211 0
394 -336 -211 0
379 -413 -213 0
413 -379 -213 0
324 -386 -215 0
386 -324 -215 0
441 -397 -217 0
397 -441 -217 0
433 -410 -219 0
410 -433 -219 0
416 -443 -221 0
443 -416 -221 0
339 -434 -223 0
434 -339 -223 0
432 -428 -225 0
428 -432 -225 0
383 -376 -227 0
376 -383 -227 0
436 -444 -229 0
444 -436 -229 0
341 -391 -231 0
391 -341 -231 0
415 -334 -233 0
334 -415 -233 0
409 -336 -235 0
336 -409 -235 0
392 -403 -237 0
403 -392 -237 0
323 -441 -239 0
441 -323 -239 0
368 -420 -241 0
420 -368 -241 0
334 -362 -243 0
362 -334 -243 0
452 -399 -245 0
399 -452 -245 0
438 -327 -247 0
327 -438 -247 0
352 -331 -249 0
331 -352 -249 0
323 -432 -251 0
432 -323 -251 0
330 -418 -253 0
418 -330 -253 0
348 -429 -255 0
429 -348 -255 0
331 -451 -257 0
451 -331 -257 0
442 -418 -259 0
418 -442 -259 0
399 -355 -261 0
355 -399 -261 0
375 -427 -263 0
427 -375 -263 0
377 -326 -265 0
326 -377 -265 0
318 -373 -267 0
373 -318 -267 0
445 -420 -269 0
420 -445 -269 0
340 -328 -271 0
328 -340 -271 0
317 -393 -273 0
393 -317 -273 0
372 -404 -275 0
404 -372 -275 0
398 -384 -277 0
384 -398 -277 0
325 -327 -279 0
327 -325 -279 0
322 -343 -281 0
343 -322 -281 0
390 -371 -283 0
371 -390 -283 0
422 -365 -285 0
365 -422 -285 0
409 -348 -287 0
348 -409 -287 0
414 -347 -289 0
347 -414 -289 0
407 -424 -291 0
424 -407 -291 0
345 -384 -293 0
384 -345 -293 0
396 -378 -295 0
378 -396 -295 0
327 -325 -297 0
325 -327 -297 0
433 -412 -299 0
412 -433 -299 0
373 -430 -301 0
430 -373 -301 0
430 -332 -303 0
332 -430 -303 0
379 -380 -305 0
380 -379 -305 0
318 -408 -307 0
408 -318 -307 0
387 -413 -309 0
413 -387 -309 0
359 -326 -311 0
326 -359 -311 0
399 -405 -313 0
405 -399 -313 0
317 -366 -315 0
366 -317 -315 0

